benchmarks/bfuzz0/21317168430831257455706312071984929960.smt2
(set-logic QF_FP)
(declare-const x0 (_ FloatingPoint 11 53))
(declare-const x1 (_ FloatingPoint 11 53))
(declare-const x2 (_ FloatingPoint 11 53))
(declare-const x3 (_ FloatingPoint 11 53))
(declare-const x4 (_ FloatingPoint 11 53))
(declare-const x5 (_ FloatingPoint 11 53))
(declare-const x6 (_ FloatingPoint 11 53))
(declare-const x7 (_ FloatingPoint 11 53))
(assert (fp.gt (fp.mul RNE (fp.add RNE x3 x6) (fp.add RNE x6 x3)) (fp.div RNE (fp.neg x5) (fp.sub RNE x0 x7))))
(assert (fp.gt (fp.neg (fp.add RNE x5 x2)) (fp.neg (fp.neg x5))))
(assert (fp.leq (fp.div RNE (fp.neg x0) (fp.sub RNE x4 x6)) (fp.sub RNE (fp.div RNE x3 x2) (fp.sub RNE x5 x6))))
(assert (fp.geq (fp.add RNE (fp.sub RNE x3 x6) (fp.sub RNE x1 x1)) (fp.mul RNE (fp.sub RNE x7 x5) (fp.add RNE x0 x2))))
(assert (fp.leq (fp.add RNE (fp.sub RNE x1 x6) (fp.mul RNE x4 x4)) (fp.add RNE (fp.neg x2) (fp.mul RNE x2 x4))))
(check-sat)
