db/data/21317168430831257455706312071984929960.z3.out
-------------------
2500.178569622
